decision_x1=[0,4];
decision_x2=[0,4];
decision_x3=[0,4];
decision_x4=[0,4];
decision_x5=[0,4];
random_y1=[0,4];
constraint_x2_x1=[
0,1,5.5|
0,2,3.7|
0,3,6.3|
0,4,7.1|
1,0,6.3|
1,2,5.6|
1,3,0.76|
1,4,2.9|
2,0,1.8|
2,1,8.4|
2,3,4|
2,4,7.1|
3,0,6.2|
3,1,1.7|
3,2,4.3|
3,4,3.9|
4,0,8.2|
4,1,8.9|
4,2,6.9|
4,3,5.6|
];
constraint_x4_x1=[
0,1,5.4|
0,2,0.94|
0,3,5.2|
0,4,5.1|
1,0,9.6|
1,2,6.2|
1,3,4.4|
1,4,5.2|
2,0,7.8|
2,1,4.3|
2,3,7.2|
2,4,3.4|
3,0,6.2|
3,1,7.3|
3,2,8.4|
3,4,2.7|
4,0,7|
4,1,2.5|
4,2,3.1|
4,3,1.2|
];
constraint_x4_x2=[
0,1,1.6|
0,2,1.3|
0,3,6.2|
0,4,4.7|
1,0,7.7|
1,2,2.2|
1,3,6.8|
1,4,3.8|
2,0,3|
2,1,8|
2,3,5.9|
2,4,8.7|
3,0,6.6|
3,1,4.3|
3,2,7.2|
3,4,4.1|
4,0,4.9|
4,1,8.2|
4,2,1.1|
4,3,7.7|
];
constraint_x4_x3=[
0,1,0.36|
0,2,6.6|
0,3,3.4|
0,4,3.7|
1,0,9.7|
1,2,1.6|
1,3,6.4|
1,4,4|
2,0,2.1|
2,1,4.4|
2,3,5.7|
2,4,3.2|
3,0,1.3|
3,1,2.5|
3,2,9.8|
3,4,8.4|
4,0,0.74|
4,1,8.6|
4,2,1.1|
4,3,0.85|
];
constraint_x5_x3=[
0,1,7.4|
0,2,5.9|
0,3,9.8|
0,4,9.3|
1,0,9.5|
1,2,8.1|
1,3,6.8|
1,4,3.6|
2,0,2.7|
2,1,9.6|
2,3,4.9|
2,4,4.7|
3,0,4.7|
3,1,0.91|
3,2,9.8|
3,4,3.3|
4,0,7.9|
4,1,7.7|
4,2,0.3|
4,3,3.5|
];
constraint_x1_y1=[
0,0,2.8|
0,1,6.3|
0,2,6.1|
0,3,6|
0,4,7.9|
1,0,9.4|
1,1,6.2|
1,2,7|
1,3,7.5|
1,4,7|
2,0,5.8|
2,1,3.5|
2,2,9.8|
2,3,4.2|
2,4,2.7|
3,0,4|
3,1,4.6|
3,2,2.5|
3,3,3.2|
3,4,4.5|
4,0,6.4|
4,1,0.17|
4,2,5.4|
4,3,6.8|
4,4,0.58|
];
initial_distribution_y1=[0.1,0.1,0.23,0.25,0.32];
transition_y1=[
0.083,0.47,0.015,0.087,0.35|
0.33,0.42,0.043,0.014,0.2|
0.22,0.15,0.013,0.24,0.38|
0.032,0.26,0.035,0.39,0.28|
0.25,0.12,0.31,0.13,0.18|
];
